100 8
565 518
71 795
516 443
290 877
920 889
388 854
787 387
790 381
454 431
882 223
801 546
922 738
155 777
217 501
865 829
918 432
675 464
707 415
70 834
43 938
189 297
877 255
771 395
794 797
815 127
684 309
408 791
830 834
101 471
562 126
782 362
520 208
581 507
769 889
937 169
431 374
242 289
500 396
594 394
881 215
149 920
865 200
591 378
496 478
583 38
656 395
765 435
853 528
449 500
548 120
676 408
735 338
455 55
299 145
463 195
141 942
743 539
396 544
442 404
448 554
110 868
396 466
656 256
586 128
278 710
573 415
744 524
131 474
945 838
321 865
354 716
131 773
210 396
224 399
846 470
824 268
606 433
218 501
317 724
653 439
172 760
631 378
223 373
332 560
272 226
414 474
339 818
810 459
200 383
855 397
284 326
618 393
482 335
727 356
922 430
520 479
696 304
838 833
907 219
273 512
